Optimal - objective value 10.00000000
      0 x_0_0                       1                       1
      2 x_1_1                       1                       0
      5 x_2_2                       1                       1
      9 x_3_3                       1                       1
     14 x_4_4                       1                       1
     20 x_5_5                       1                       1
     25 x_6_4                       1                       0
     31 x_7_3                       1                       0
     39 x_8_3                       1                       0
     54 x_9_9                       1                       1
     65 x_10_10                     1                       1
     67 x_11_1                      1                      -1
     90 x_12_12                     1                       1
    104 x_13_13                     1                       1
    109 x_14_4                      1                       0
    133 x_15_13                     1                       0
    136 x_16_0                      1                      -1
    166 x_17_13                     1                       0
    173 x_18_2                      1                       0
    200 x_19_10                     1                       0
    214 x_20_4                      1                      -1
    236 x_21_5                      1                      -1
    256 x_22_3                      1                      -1
    278 x_23_2                      1                      -1
    301 x_24_1                      1                       0
    334 x_25_9                      1                       0
    355 x_26_4                      1                      -1
    390 x_27_12                     1                       0
    408 x_28_2                      1                      -1
    436 x_29_1                      1                       0
    475 x_30_10                     1                      -1
    505 x_31_9                      1                       0
    532 x_32_4                      1                      -1
    574 x_33_13                     1                       0
    605 x_34_10                     1                      -1
    642 x_35_12                     1                       0
    667 x_36_1                      1                       0
    716 x_37_13                     1                       0
    743 x_38_2                      1                       0
    789 x_39_9                      1                       0
    825 x_40_5                      1                       0
    871 x_41_10                     1                       0
    915 x_42_12                     1                       0
    958 x_43_12                     1                       0
    991 x_44_1                      1                       0
   1040 x_45_5                      1                       0
   1081 x_46_0                      1                       0
   1128 x_47_0                      1                       0
   1189 x_48_13                     1                       0
   1229 x_49_4                      1                       0
   1278 x_50_3                      1                       0
   1327 x_51_1                      1                       0
